p cnf 798 1655
1 2 0
3 2 0
-1 -3 -2 0
2 -4 -5 0
4 -2 -5 0
5 -2 -4 0
4 2 5 0
-5 0
6 7 0
8 7 0
-6 -8 -7 0
-3 7 -9 0
3 -7 -9 0
9 -7 -3 0
3 7 9 0
-9 0
6 10 0
11 10 0
-6 -11 -10 0
-8 10 -12 0
8 -10 -12 0
12 -10 -8 0
8 10 12 0
-12 0
13 14 0
15 14 0
-13 -15 -14 0
14 -16 -17 0
16 -14 -17 0
17 -14 -16 0
16 14 17 0
-17 0
18 19 0
20 19 0
-18 -20 -19 0
-15 19 -21 0
15 -19 -21 0
21 -19 -15 0
15 19 21 0
-21 0
20 -22 0
22 -20 0
23 24 0
25 24 0
-23 -25 -24 0
24 -26 -27 0
26 -24 -27 0
27 -24 -26 0
26 24 27 0
-27 0
28 29 0
30 29 0
-28 -30 -29 0
-25 29 -31 0
25 -29 -31 0
31 -29 -25 0
25 29 31 0
-31 0
32 33 0
34 33 0
-32 -34 -33 0
-30 33 -35 0
30 -33 -35 0
35 -33 -30 0
30 33 35 0
-35 0
36 37 0
38 37 0
-36 -38 -37 0
-34 37 -39 0
34 -37 -39 0
39 -37 -34 0
34 37 39 0
-39 0
40 41 0
42 41 0
-40 -42 -41 0
-38 41 -43 0
38 -41 -43 0
43 -41 -38 0
38 41 43 0
-43 0
44 45 0
46 45 0
-44 -46 -45 0
-42 45 -47 0
42 -45 -47 0
47 -45 -42 0
42 45 47 0
-47 0
40 48 0
44 48 0
49 48 0
-40 -44 -49 -48 0
-46 48 -50 0
46 -48 -50 0
50 -48 -46 0
46 48 50 0
-50 0
51 52 0
53 52 0
-51 -53 -52 0
52 -54 -55 0
54 -52 -55 0
55 -52 -54 0
54 52 55 0
-55 0
56 57 0
58 57 0
-56 -58 -57 0
-53 57 -59 0
53 -57 -59 0
59 -57 -53 0
53 57 59 0
-59 0
58 -60 0
60 -58 0
61 62 0
63 62 0
-61 -63 -62 0
62 -64 -65 0
64 -62 -65 0
65 -62 -64 0
64 62 65 0
-65 0
63 -66 0
66 -63 0
67 68 0
69 68 0
-67 -69 -68 0
68 -70 -71 0
70 -68 -71 0
71 -68 -70 0
70 68 71 0
-71 0
72 73 0
74 73 0
-72 -74 -73 0
-69 73 -75 0
69 -73 -75 0
75 -73 -69 0
69 73 75 0
-75 0
76 77 0
78 77 0
-76 -78 -77 0
-74 77 -79 0
74 -77 -79 0
79 -77 -74 0
74 77 79 0
-79 0
80 81 0
82 81 0
-80 -82 -81 0
-78 81 -83 0
78 -81 -83 0
83 -81 -78 0
78 81 83 0
-83 0
84 85 0
86 85 0
-84 -86 -85 0
-82 85 -87 0
82 -85 -87 0
87 -85 -82 0
82 85 87 0
-87 0
80 88 0
84 88 0
89 88 0
-80 -84 -89 -88 0
-86 88 -90 0
86 -88 -90 0
90 -88 -86 0
86 88 90 0
-90 0
91 92 0
93 92 0
-91 -93 -92 0
92 -94 -95 0
94 -92 -95 0
95 -92 -94 0
94 92 95 0
-95 0
96 97 0
98 97 0
-96 -98 -97 0
-93 97 -99 0
93 -97 -99 0
99 -97 -93 0
93 97 99 0
-99 0
100 101 0
102 101 0
-100 -102 -101 0
-98 101 -103 0
98 -101 -103 0
103 -101 -98 0
98 101 103 0
-103 0
104 105 0
106 105 0
-104 -106 -105 0
-102 105 -107 0
102 -105 -107 0
107 -105 -102 0
102 105 107 0
-107 0
100 108 0
104 108 0
109 108 0
-100 -104 -109 -108 0
-106 108 -110 0
106 -108 -110 0
110 -108 -106 0
106 108 110 0
-110 0
111 112 0
113 112 0
-111 -113 -112 0
112 -114 -115 0
114 -112 -115 0
115 -112 -114 0
114 112 115 0
-115 0
116 117 0
118 117 0
-116 -118 -117 0
-113 117 -119 0
113 -117 -119 0
119 -117 -113 0
113 117 119 0
-119 0
120 121 0
122 121 0
-120 -122 -121 0
-118 121 -123 0
118 -121 -123 0
123 -121 -118 0
118 121 123 0
-123 0
124 125 0
126 125 0
-124 -126 -125 0
-122 125 -127 0
122 -125 -127 0
127 -125 -122 0
122 125 127 0
-127 0
128 129 0
130 129 0
-128 -130 -129 0
-126 129 -131 0
126 -129 -131 0
131 -129 -126 0
126 129 131 0
-131 0
132 133 0
134 133 0
-132 -134 -133 0
-130 133 -135 0
130 -133 -135 0
135 -133 -130 0
130 133 135 0
-135 0
128 136 0
132 136 0
137 136 0
-128 -132 -137 -136 0
-134 136 -138 0
134 -136 -138 0
138 -136 -134 0
134 136 138 0
-138 0
139 140 0
141 140 0
-139 -141 -140 0
140 -142 -143 0
142 -140 -143 0
143 -140 -142 0
142 140 143 0
-143 0
144 145 0
146 145 0
-144 -146 -145 0
-141 145 -147 0
141 -145 -147 0
147 -145 -141 0
141 145 147 0
-147 0
148 149 0
150 149 0
-148 -150 -149 0
-146 149 -151 0
146 -149 -151 0
151 -149 -146 0
146 149 151 0
-151 0
152 153 0
154 153 0
-152 -154 -153 0
-150 153 -155 0
150 -153 -155 0
155 -153 -150 0
150 153 155 0
-155 0
156 157 0
158 157 0
-156 -158 -157 0
-154 157 -159 0
154 -157 -159 0
159 -157 -154 0
154 157 159 0
-159 0
148 160 0
152 160 0
156 160 0
161 160 0
-162 0
-158 160 -163 0
158 -160 -163 0
163 -160 -158 0
158 160 163 0
-163 0
164 165 0
166 165 0
-164 -166 -165 0
165 -167 -168 0
167 -165 -168 0
168 -165 -167 0
167 165 168 0
-168 0
169 170 0
171 170 0
-169 -171 -170 0
-166 170 -172 0
166 -170 -172 0
172 -170 -166 0
166 170 172 0
-172 0
173 174 0
175 174 0
-173 -175 -174 0
-171 174 -176 0
171 -174 -176 0
176 -174 -171 0
171 174 176 0
-176 0
177 178 0
179 178 0
-177 -179 -178 0
-175 178 -180 0
175 -178 -180 0
180 -178 -175 0
175 178 180 0
-180 0
181 182 0
183 182 0
-181 -183 -182 0
-179 182 -184 0
179 -182 -184 0
184 -182 -179 0
179 182 184 0
-184 0
185 186 0
187 186 0
-185 -187 -186 0
-183 186 -188 0
183 -186 -188 0
188 -186 -183 0
183 186 188 0
-188 0
177 189 0
181 189 0
185 189 0
190 189 0
-191 0
-187 189 -192 0
187 -189 -192 0
192 -189 -187 0
187 189 192 0
-192 0
193 194 0
195 194 0
-193 -195 -194 0
-196 194 -197 0
196 -194 -197 0
197 -194 -196 0
196 194 197 0
-197 0
198 199 0
200 199 0
-198 -200 -199 0
-195 199 -201 0
195 -199 -201 0
201 -199 -195 0
195 199 201 0
-201 0
202 203 0
204 203 0
-202 -204 -203 0
-200 203 -205 0
200 -203 -205 0
205 -203 -200 0
200 203 205 0
-205 0
206 207 0
208 207 0
-206 -208 -207 0
-204 207 -209 0
204 -207 -209 0
209 -207 -204 0
204 207 209 0
-209 0
202 210 0
206 210 0
211 210 0
-202 -206 -211 -210 0
-208 210 -212 0
208 -210 -212 0
212 -210 -208 0
208 210 212 0
-212 0
213 214 0
215 214 0
-213 -215 -214 0
-216 214 -217 0
216 -214 -217 0
217 -214 -216 0
216 214 217 0
-217 0
218 219 0
220 219 0
-218 -220 -219 0
-215 219 -221 0
215 -219 -221 0
221 -219 -215 0
215 219 221 0
-221 0
222 223 0
224 223 0
-222 -224 -223 0
-220 223 -225 0
220 -223 -225 0
225 -223 -220 0
220 223 225 0
-225 0
226 227 0
228 227 0
-226 -228 -227 0
-224 227 -229 0
224 -227 -229 0
229 -227 -224 0
224 227 229 0
-229 0
230 231 0
232 231 0
-230 -232 -231 0
-228 231 -233 0
228 -231 -233 0
233 -231 -228 0
228 231 233 0
-233 0
234 235 0
236 235 0
-234 -236 -235 0
-232 235 -237 0
232 -235 -237 0
237 -235 -232 0
232 235 237 0
-237 0
238 239 0
240 239 0
-238 -240 -239 0
-236 239 -241 0
236 -239 -241 0
241 -239 -236 0
236 239 241 0
-241 0
230 242 0
234 242 0
238 242 0
243 242 0
-244 0
-240 242 -245 0
240 -242 -245 0
245 -242 -240 0
240 242 245 0
-245 0
246 247 0
248 247 0
-246 -248 -247 0
-249 247 -250 0
249 -247 -250 0
250 -247 -249 0
249 247 250 0
-250 0
251 252 0
253 252 0
-251 -253 -252 0
-248 252 -254 0
248 -252 -254 0
254 -252 -248 0
248 252 254 0
-254 0
255 256 0
257 256 0
-255 -257 -256 0
-253 256 -258 0
253 -256 -258 0
258 -256 -253 0
253 256 258 0
-258 0
259 260 0
261 260 0
-259 -261 -260 0
-257 260 -262 0
257 -260 -262 0
262 -260 -257 0
257 260 262 0
-262 0
263 264 0
265 264 0
-263 -265 -264 0
-261 264 -266 0
261 -264 -266 0
266 -264 -261 0
261 264 266 0
-266 0
267 268 0
269 268 0
-267 -269 -268 0
-265 268 -270 0
265 -268 -270 0
270 -268 -265 0
265 268 270 0
-270 0
259 271 0
263 271 0
267 271 0
272 271 0
-273 0
-269 271 -274 0
269 -271 -274 0
274 -271 -269 0
269 271 274 0
-274 0
275 276 0
277 276 0
-275 -277 -276 0
-278 276 -279 0
278 -276 -279 0
279 -276 -278 0
278 276 279 0
-279 0
280 281 0
282 281 0
-280 -282 -281 0
-277 281 -283 0
277 -281 -283 0
283 -281 -277 0
277 281 283 0
-283 0
284 285 0
286 285 0
-284 -286 -285 0
-282 285 -287 0
282 -285 -287 0
287 -285 -282 0
282 285 287 0
-287 0
288 289 0
290 289 0
-288 -290 -289 0
-286 289 -291 0
286 -289 -291 0
291 -289 -286 0
286 289 291 0
-291 0
292 293 0
294 293 0
-292 -294 -293 0
-290 293 -295 0
290 -293 -295 0
295 -293 -290 0
290 293 295 0
-295 0
296 297 0
298 297 0
-296 -298 -297 0
-294 297 -299 0
294 -297 -299 0
299 -297 -294 0
294 297 299 0
-299 0
288 300 0
292 300 0
296 300 0
301 300 0
-302 0
-298 300 -303 0
298 -300 -303 0
303 -300 -298 0
298 300 303 0
-303 0
304 305 0
306 305 0
-304 -306 -305 0
-307 305 -308 0
307 -305 -308 0
308 -305 -307 0
307 305 308 0
-308 0
309 310 0
311 310 0
-309 -311 -310 0
-306 310 -312 0
306 -310 -312 0
312 -310 -306 0
306 310 312 0
-312 0
313 314 0
315 314 0
-313 -315 -314 0
-311 314 -316 0
311 -314 -316 0
316 -314 -311 0
311 314 316 0
-316 0
317 318 0
319 318 0
-317 -319 -318 0
-315 318 -320 0
315 -318 -320 0
320 -318 -315 0
315 318 320 0
-320 0
321 322 0
323 322 0
-321 -323 -322 0
-319 322 -324 0
319 -322 -324 0
324 -322 -319 0
319 322 324 0
-324 0
321 325 0
326 325 0
-321 -326 -325 0
-323 325 -327 0
323 -325 -327 0
327 -325 -323 0
323 325 327 0
-327 0
328 329 0
330 329 0
-328 -330 -329 0
-331 329 -332 0
331 -329 -332 0
332 -329 -331 0
331 329 332 0
-332 0
333 334 0
335 334 0
-333 -335 -334 0
-330 334 -336 0
330 -334 -336 0
336 -334 -330 0
330 334 336 0
-336 0
337 338 0
339 338 0
-337 -339 -338 0
-335 338 -340 0
335 -338 -340 0
340 -338 -335 0
335 338 340 0
-340 0
341 342 0
343 342 0
-341 -343 -342 0
-339 342 -344 0
339 -342 -344 0
344 -342 -339 0
339 342 344 0
-344 0
345 346 0
347 346 0
-345 -347 -346 0
-343 346 -348 0
343 -346 -348 0
348 -346 -343 0
343 346 348 0
-348 0
349 350 0
351 350 0
-349 -351 -350 0
-347 350 -352 0
347 -350 -352 0
352 -350 -347 0
347 350 352 0
-352 0
345 353 0
349 353 0
354 353 0
-345 -349 -354 -353 0
-351 353 -355 0
351 -353 -355 0
355 -353 -351 0
351 353 355 0
-355 0
356 357 0
358 357 0
-356 -358 -357 0
-359 357 -360 0
359 -357 -360 0
360 -357 -359 0
359 357 360 0
-360 0
361 362 0
363 362 0
-361 -363 -362 0
-358 362 -364 0
358 -362 -364 0
364 -362 -358 0
358 362 364 0
-364 0
365 366 0
367 366 0
-365 -367 -366 0
-363 366 -368 0
363 -366 -368 0
368 -366 -363 0
363 366 368 0
-368 0
369 370 0
371 370 0
-369 -371 -370 0
-367 370 -372 0
367 -370 -372 0
372 -370 -367 0
367 370 372 0
-372 0
373 374 0
375 374 0
-373 -375 -374 0
-371 374 -376 0
371 -374 -376 0
376 -374 -371 0
371 374 376 0
-376 0
365 377 0
369 377 0
373 377 0
378 377 0
-379 0
-375 377 -380 0
375 -377 -380 0
380 -377 -375 0
375 377 380 0
-380 0
381 382 0
383 382 0
-381 -383 -382 0
-384 382 -385 0
384 -382 -385 0
385 -382 -384 0
384 382 385 0
-385 0
386 387 0
388 387 0
-386 -388 -387 0
-383 387 -389 0
383 -387 -389 0
389 -387 -383 0
383 387 389 0
-389 0
390 391 0
392 391 0
-390 -392 -391 0
-388 391 -393 0
388 -391 -393 0
393 -391 -388 0
388 391 393 0
-393 0
394 395 0
396 395 0
-394 -396 -395 0
-392 395 -397 0
392 -395 -397 0
397 -395 -392 0
392 395 397 0
-397 0
398 399 0
400 399 0
-398 -400 -399 0
-396 399 -401 0
396 -399 -401 0
401 -399 -396 0
396 399 401 0
-401 0
402 403 0
404 403 0
-402 -404 -403 0
-400 403 -405 0
400 -403 -405 0
405 -403 -400 0
400 403 405 0
-405 0
398 406 0
402 406 0
407 406 0
-398 -402 -407 -406 0
-404 406 -408 0
404 -406 -408 0
408 -406 -404 0
404 406 408 0
-408 0
409 410 0
411 410 0
-409 -411 -410 0
-412 410 -413 0
412 -410 -413 0
413 -410 -412 0
412 410 413 0
-413 0
414 415 0
416 415 0
-414 -416 -415 0
-411 415 -417 0
411 -415 -417 0
417 -415 -411 0
411 415 417 0
-417 0
418 419 0
420 419 0
-418 -420 -419 0
-416 419 -421 0
416 -419 -421 0
421 -419 -416 0
416 419 421 0
-421 0
422 423 0
424 423 0
-422 -424 -423 0
-420 423 -425 0
420 -423 -425 0
425 -423 -420 0
420 423 425 0
-425 0
426 427 0
428 427 0
-426 -428 -427 0
-424 427 -429 0
424 -427 -429 0
429 -427 -424 0
424 427 429 0
-429 0
422 430 0
426 430 0
431 430 0
-422 -426 -431 -430 0
-428 430 -432 0
428 -430 -432 0
432 -430 -428 0
428 430 432 0
-432 0
433 434 0
435 434 0
-433 -435 -434 0
-436 434 -437 0
436 -434 -437 0
437 -434 -436 0
436 434 437 0
-437 0
438 439 0
440 439 0
-438 -440 -439 0
-435 439 -441 0
435 -439 -441 0
441 -439 -435 0
435 439 441 0
-441 0
442 443 0
444 443 0
-442 -444 -443 0
-440 443 -445 0
440 -443 -445 0
445 -443 -440 0
440 443 445 0
-445 0
446 447 0
448 447 0
-446 -448 -447 0
-444 447 -449 0
444 -447 -449 0
449 -447 -444 0
444 447 449 0
-449 0
450 451 0
452 451 0
-450 -452 -451 0
-448 451 -453 0
448 -451 -453 0
453 -451 -448 0
448 451 453 0
-453 0
446 454 0
450 454 0
455 454 0
-446 -450 -455 -454 0
-452 454 -456 0
452 -454 -456 0
456 -454 -452 0
452 454 456 0
-456 0
457 -458 0
459 457 0
458 -459 -457 0
1 -457 0
-1 457 0
460 -461 0
462 460 0
461 -462 -460 0
6 -460 0
-6 460 0
463 -464 0
465 463 0
464 -465 -463 0
11 -463 0
-11 463 0
466 -467 0
468 466 0
467 -468 -466 0
13 -466 0
-13 466 0
469 -470 0
471 469 0
470 -471 -469 0
18 -469 0
-18 469 0
472 -473 0
474 472 0
473 -474 -472 0
22 -472 0
-22 472 0
475 -476 0
477 475 0
476 -477 -475 0
23 -475 0
-23 475 0
478 -479 0
480 478 0
479 -480 -478 0
28 -478 0
-28 478 0
481 -482 0
483 481 0
482 -483 -481 0
32 -481 0
-32 481 0
484 -485 0
486 484 0
485 -486 -484 0
36 -484 0
-36 484 0
487 -488 0
489 487 0
488 -489 -487 0
40 -487 0
-40 487 0
490 -491 0
492 490 0
491 -492 -490 0
44 -490 0
-44 490 0
493 -494 0
495 493 0
494 -495 -493 0
49 -493 0
-49 493 0
496 -497 0
498 496 0
497 -498 -496 0
51 -496 0
-51 496 0
499 -500 0
501 499 0
500 -501 -499 0
56 -499 0
-56 499 0
502 -503 0
504 502 0
503 -504 -502 0
60 -502 0
-60 502 0
505 -506 0
507 505 0
506 -507 -505 0
61 -505 0
-61 505 0
508 -509 0
510 508 0
509 -510 -508 0
66 -508 0
-66 508 0
511 -512 0
513 511 0
512 -513 -511 0
67 -511 0
-67 511 0
514 -515 0
516 514 0
515 -516 -514 0
72 -514 0
-72 514 0
517 -518 0
519 517 0
518 -519 -517 0
76 -517 0
-76 517 0
520 -521 0
522 520 0
521 -522 -520 0
80 -520 0
-80 520 0
523 -524 0
525 523 0
524 -525 -523 0
84 -523 0
-84 523 0
526 -527 0
528 526 0
527 -528 -526 0
89 -526 0
-89 526 0
529 -530 0
531 529 0
530 -531 -529 0
91 -529 0
-91 529 0
532 -533 0
534 532 0
533 -534 -532 0
96 -532 0
-96 532 0
535 -536 0
537 535 0
536 -537 -535 0
100 -535 0
-100 535 0
538 -539 0
540 538 0
539 -540 -538 0
104 -538 0
-104 538 0
541 -542 0
543 541 0
542 -543 -541 0
109 -541 0
-109 541 0
544 -545 0
546 544 0
545 -546 -544 0
111 -544 0
-111 544 0
547 -548 0
549 547 0
548 -549 -547 0
116 -547 0
-116 547 0
550 -551 0
552 550 0
551 -552 -550 0
120 -550 0
-120 550 0
553 -554 0
555 553 0
554 -555 -553 0
124 -553 0
-124 553 0
556 -557 0
558 556 0
557 -558 -556 0
128 -556 0
-128 556 0
559 -560 0
561 559 0
560 -561 -559 0
132 -559 0
-132 559 0
562 -563 0
564 562 0
563 -564 -562 0
137 -562 0
-137 562 0
565 -566 0
567 565 0
566 -567 -565 0
139 -565 0
-139 565 0
568 -569 0
570 568 0
569 -570 -568 0
144 -568 0
-144 568 0
571 -572 0
573 571 0
572 -573 -571 0
148 -571 0
-148 571 0
574 -575 0
576 574 0
575 -576 -574 0
152 -574 0
-152 574 0
577 -578 0
579 577 0
578 -579 -577 0
156 -577 0
-156 577 0
580 -581 0
582 580 0
581 -582 -580 0
161 -580 0
-161 580 0
583 -584 0
585 583 0
584 -585 -583 0
164 -583 0
-164 583 0
586 -587 0
588 586 0
587 -588 -586 0
169 -586 0
-169 586 0
589 -590 0
591 589 0
590 -591 -589 0
173 -589 0
-173 589 0
592 -593 0
594 592 0
593 -594 -592 0
177 -592 0
-177 592 0
595 -596 0
597 595 0
596 -597 -595 0
181 -595 0
-181 595 0
598 -599 0
600 598 0
599 -600 -598 0
185 -598 0
-185 598 0
601 -602 0
603 601 0
602 -603 -601 0
190 -601 0
-190 601 0
604 -605 0
606 604 0
605 -606 -604 0
193 -604 0
-193 604 0
607 -608 0
609 607 0
608 -609 -607 0
198 -607 0
-198 607 0
610 -611 0
612 610 0
611 -612 -610 0
202 -610 0
-202 610 0
613 -614 0
615 613 0
614 -615 -613 0
206 -613 0
-206 613 0
616 -617 0
618 616 0
617 -618 -616 0
211 -616 0
-211 616 0
619 -620 0
621 619 0
620 -621 -619 0
213 -619 0
-213 619 0
622 -623 0
624 622 0
623 -624 -622 0
218 -622 0
-218 622 0
625 -626 0
627 625 0
626 -627 -625 0
222 -625 0
-222 625 0
628 -629 0
630 628 0
629 -630 -628 0
226 -628 0
-226 628 0
631 -632 0
633 631 0
632 -633 -631 0
230 -631 0
-230 631 0
634 -635 0
636 634 0
635 -636 -634 0
234 -634 0
-234 634 0
637 -638 0
639 637 0
638 -639 -637 0
238 -637 0
-238 637 0
640 -641 0
642 640 0
641 -642 -640 0
243 -640 0
-243 640 0
643 -644 0
645 643 0
644 -645 -643 0
246 -643 0
-246 643 0
646 -647 0
648 646 0
647 -648 -646 0
251 -646 0
-251 646 0
649 -650 0
651 649 0
650 -651 -649 0
255 -649 0
-255 649 0
652 -653 0
654 652 0
653 -654 -652 0
259 -652 0
-259 652 0
655 -656 0
657 655 0
656 -657 -655 0
263 -655 0
-263 655 0
658 -659 0
660 658 0
659 -660 -658 0
267 -658 0
-267 658 0
661 -662 0
663 661 0
662 -663 -661 0
272 -661 0
-272 661 0
664 -665 0
666 664 0
665 -666 -664 0
275 -664 0
-275 664 0
667 -668 0
669 667 0
668 -669 -667 0
280 -667 0
-280 667 0
670 -671 0
672 670 0
671 -672 -670 0
284 -670 0
-284 670 0
673 -674 0
675 673 0
674 -675 -673 0
288 -673 0
-288 673 0
676 -677 0
678 676 0
677 -678 -676 0
292 -676 0
-292 676 0
679 -680 0
681 679 0
680 -681 -679 0
296 -679 0
-296 679 0
682 -683 0
684 682 0
683 -684 -682 0
301 -682 0
-301 682 0
685 -686 0
687 685 0
686 -687 -685 0
304 -685 0
-304 685 0
688 -689 0
690 688 0
689 -690 -688 0
309 -688 0
-309 688 0
691 -692 0
693 691 0
692 -693 -691 0
313 -691 0
-313 691 0
694 -695 0
696 694 0
695 -696 -694 0
317 -694 0
-317 694 0
697 -698 0
699 697 0
698 -699 -697 0
321 -697 0
-321 697 0
700 -701 0
702 700 0
701 -702 -700 0
326 -700 0
-326 700 0
703 -704 0
705 703 0
704 -705 -703 0
328 -703 0
-328 703 0
706 -707 0
708 706 0
707 -708 -706 0
333 -706 0
-333 706 0
709 -710 0
711 709 0
710 -711 -709 0
337 -709 0
-337 709 0
712 -713 0
714 712 0
713 -714 -712 0
341 -712 0
-341 712 0
715 -716 0
717 715 0
716 -717 -715 0
345 -715 0
-345 715 0
718 -719 0
720 718 0
719 -720 -718 0
349 -718 0
-349 718 0
721 -722 0
723 721 0
722 -723 -721 0
354 -721 0
-354 721 0
724 -725 0
726 724 0
725 -726 -724 0
356 -724 0
-356 724 0
727 -728 0
729 727 0
728 -729 -727 0
361 -727 0
-361 727 0
730 -731 0
732 730 0
731 -732 -730 0
365 -730 0
-365 730 0
733 -734 0
735 733 0
734 -735 -733 0
369 -733 0
-369 733 0
736 -737 0
738 736 0
737 -738 -736 0
373 -736 0
-373 736 0
739 -740 0
741 739 0
740 -741 -739 0
378 -739 0
-378 739 0
742 -743 0
744 742 0
743 -744 -742 0
381 -742 0
-381 742 0
745 -746 0
747 745 0
746 -747 -745 0
386 -745 0
-386 745 0
748 -749 0
750 748 0
749 -750 -748 0
390 -748 0
-390 748 0
751 -752 0
753 751 0
752 -753 -751 0
394 -751 0
-394 751 0
754 -755 0
756 754 0
755 -756 -754 0
398 -754 0
-398 754 0
757 -758 0
759 757 0
758 -759 -757 0
402 -757 0
-402 757 0
760 -761 0
762 760 0
761 -762 -760 0
407 -760 0
-407 760 0
763 -764 0
765 763 0
764 -765 -763 0
409 -763 0
-409 763 0
766 -767 0
768 766 0
767 -768 -766 0
414 -766 0
-414 766 0
769 -770 0
771 769 0
770 -771 -769 0
418 -769 0
-418 769 0
772 -773 0
774 772 0
773 -774 -772 0
422 -772 0
-422 772 0
775 -776 0
777 775 0
776 -777 -775 0
426 -775 0
-426 775 0
778 -779 0
780 778 0
779 -780 -778 0
431 -778 0
-431 778 0
781 -782 0
783 781 0
782 -783 -781 0
433 -781 0
-433 781 0
784 -785 0
786 784 0
785 -786 -784 0
438 -784 0
-438 784 0
787 -788 0
789 787 0
788 -789 -787 0
442 -787 0
-442 787 0
790 -791 0
792 790 0
791 -792 -790 0
446 -790 0
-446 790 0
793 -794 0
795 793 0
794 -795 -793 0
450 -793 0
-450 793 0
796 -797 0
798 796 0
797 -798 -796 0
455 -796 0
-455 796 0
459 0
462 0
-465 0
-468 0
471 0
-474 0
477 0
-480 0
483 0
-486 0
-489 0
-492 0
495 0
-498 0
-501 0
504 0
-507 0
510 0
-513 0
516 0
519 0
522 0
525 0
-528 0
-531 0
534 0
537 0
-540 0
-543 0
-546 0
-549 0
-552 0
555 0
558 0
-561 0
-564 0
567 0
570 0
-573 0
576 0
579 0
-582 0
-585 0
-588 0
-591 0
594 0
-597 0
600 0
603 0
606 0
-609 0
-612 0
-615 0
-618 0
-621 0
624 0
-627 0
630 0
-633 0
-636 0
639 0
642 0
645 0
648 0
-651 0
654 0
657 0
-660 0
663 0
-666 0
-669 0
672 0
675 0
-678 0
681 0
684 0
687 0
-690 0
693 0
-696 0
-699 0
-702 0
-705 0
-708 0
711 0
-714 0
717 0
720 0
-723 0
726 0
-729 0
732 0
735 0
-738 0
741 0
-744 0
-747 0
-750 0
753 0
756 0
-759 0
762 0
-765 0
768 0
-771 0
774 0
-777 0
-780 0
-783 0
-786 0
-789 0
792 0
-795 0
798 0
4 0
16 0
26 0
54 0
64 0
70 0
94 0
114 0
142 0
167 0
-196 0
-216 0
-249 0
-278 0
-307 0
-331 0
-359 0
-384 0
-412 0
-436 0
488 -539 0
539 -488 0
491 -542 0
542 -491 0
494 -536 0
536 -494 0
488 -560 0
560 -488 0
491 -563 0
563 -491 0
494 -557 0
557 -494 0
503 -509 0
509 -503 0
533 -554 0
554 -533 0
536 -557 0
557 -536 0
539 -560 0
560 -539 0
542 -563 0
563 -542 0
593 -674 0
674 -593 0
596 -677 0
677 -596 0
599 -680 0
680 -599 0
602 -683 0
683 -602 0
716 -797 0
797 -716 0
719 -791 0
791 -719 0
722 -794 0
794 -722 0
